Academic license - for non-commercial use only
Gurobi Optimizer version 9.0.3 build v9.0.3rc0 (mac64)
Optimize a model with 156424 rows, 151200 columns and 877950 nonzeros
Model fingerprint: 0x4ecfd81d
Variable types: 0 continuous, 151200 integer (151200 binary)
Coefficient statistics:
  Matrix range     [1e+00, 1e+00]
  Objective range  [1e+01, 3e+04]
  Bounds range     [1e+00, 1e+00]
  RHS range        [1e+00, 2e+02]
Presolve added 0 rows and 2450 columns
Presolve removed 50 rows and 0 columns
Presolve time: 2.51s
Presolved: 156374 rows, 153650 columns, 635350 nonzeros
Variable types: 0 continuous, 153650 integer (153650 binary)
Found heuristic solution: objective 561193.00000

Concurrent LP optimizer: dual simplex and barrier
Showing barrier log only...

Root barrier log...

Ordering time: 0.42s

Barrier statistics:
 Dense cols : 600
 AA' NZ     : 4.894e+05
 Factor NZ  : 2.609e+06 (roughly 150 MBytes of memory)
 Factor Ops : 1.141e+09 (less than 1 second per iteration)
 Threads    : 3

                  Objective                Residual
Iter       Primal          Dual         Primal    Dual     Compl     Time
   0   1.29833093e+08 -1.80170760e+08  3.59e+02 3.17e+01  9.94e+03     5s
   1   1.35408855e+06 -2.07780419e+08  2.17e+00 4.44e+02  5.17e+02     5s
   2   7.90008406e+05 -1.09379884e+08  5.46e-01 2.40e+02  2.54e+02     5s
   3   6.74362957e+05 -4.67434284e+07  1.92e-01 9.94e+01  1.07e+02     5s
   4   6.10610397e+05 -2.54469861e+06  6.52e-03 2.24e+01  6.99e+00     6s
   5   5.94494619e+05 -2.49476356e+05  3.34e-03 6.72e+00  1.86e+00     6s
   6   5.75312387e+05  6.27582577e+04  2.28e-03 3.76e+00  1.13e+00     6s
   7   5.64700986e+05  2.16118985e+05  1.89e-03 2.32e+00  7.67e-01     6s
   8   5.53215721e+05  3.34705914e+05  1.44e-03 1.22e+00  4.80e-01     6s
   9   5.45301309e+05  4.07744311e+05  1.23e-03 4.89e-01  3.01e-01     7s
  10   5.38113613e+05  4.40132495e+05  1.05e-03 2.96e-01  2.14e-01     7s
  11   5.33248058e+05  4.56931399e+05  9.37e-04 1.97e-01  1.67e-01     7s
  12   5.23993189e+05  4.69394669e+05  7.33e-04 1.21e-01  1.19e-01     7s
  13   5.18507302e+05  4.75939161e+05  6.17e-04 8.06e-02  9.27e-02     8s
  14   5.14361273e+05  4.79514507e+05  5.25e-04 5.97e-02  7.58e-02     8s
  15   5.10288967e+05  4.82196991e+05  4.37e-04 4.47e-02  6.11e-02     8s
  16   5.06985418e+05  4.84051084e+05  3.63e-04 3.49e-02  4.99e-02     8s
  17   5.03877529e+05  4.85575039e+05  2.96e-04 2.62e-02  3.98e-02     9s
  18   5.00341708e+05  4.86611077e+05  2.22e-04 2.05e-02  2.98e-02     9s
  19   4.98457221e+05  4.87232275e+05  1.80e-04 1.72e-02  2.44e-02     9s
  20   4.96525201e+05  4.87715785e+05  1.37e-04 1.46e-02  1.92e-02     9s
  21   4.96181098e+05  4.88011908e+05  1.29e-04 1.31e-02  1.78e-02    10s
  22   4.95864631e+05  4.88194896e+05  1.22e-04 1.21e-02  1.67e-02    10s
  23   4.95225260e+05  4.88566919e+05  1.07e-04 1.03e-02  1.45e-02    10s
  24   4.94622605e+05  4.88739532e+05  9.33e-05 9.34e-03  1.28e-02    10s
  25   4.93934893e+05  4.88901949e+05  7.79e-05 8.48e-03  1.09e-02    10s
  26   4.93524652e+05  4.89257703e+05  6.90e-05 6.46e-03  9.28e-03    11s
  27   4.93145542e+05  4.89369775e+05  6.04e-05 5.88e-03  8.21e-03    11s
  28   4.92907982e+05  4.89491033e+05  5.49e-05 5.30e-03  7.43e-03    11s
  29   4.92746510e+05  4.89667003e+05  5.11e-05 4.42e-03  6.69e-03    11s
  30   4.92551861e+05  4.89755167e+05  4.66e-05 3.98e-03  6.08e-03    12s
  31   4.92309818e+05  4.89824332e+05  4.09e-05 3.62e-03  5.40e-03    12s
  32   4.92103029e+05  4.89919348e+05  3.64e-05 3.17e-03  4.75e-03    12s
  33   4.91919717e+05  4.89950147e+05  3.21e-05 3.02e-03  4.28e-03    12s
  34   4.91825876e+05  4.90067639e+05  2.98e-05 2.46e-03  3.82e-03    12s
  35   4.91739453e+05  4.90084439e+05  2.79e-05 2.38e-03  3.60e-03    13s
  36   4.91635664e+05  4.90179289e+05  2.56e-05 1.85e-03  3.16e-03    13s
  37   4.91533065e+05  4.90213036e+05  2.32e-05 1.68e-03  2.87e-03    13s
  38   4.91517977e+05  4.90235397e+05  2.28e-05 1.57e-03  2.78e-03    13s
  39   4.91393428e+05  4.90270535e+05  2.01e-05 1.41e-03  2.44e-03    13s
  40   4.91335543e+05  4.90329177e+05  1.86e-05 1.10e-03  2.18e-03    14s
  41   4.91219770e+05  4.90347213e+05  1.60e-05 9.99e-04  1.89e-03    14s
  42   4.91142231e+05  4.90372637e+05  1.42e-05 8.66e-04  1.67e-03    14s
  43   4.91078150e+05  4.90402716e+05  1.27e-05 7.14e-04  1.47e-03    14s
  44   4.90996213e+05  4.90423981e+05  1.08e-05 6.03e-04  1.24e-03    15s
  45   4.90957238e+05  4.90432767e+05  9.89e-06 5.60e-04  1.14e-03    15s
  46   4.90898776e+05  4.90452448e+05  8.46e-06 4.78e-04  9.68e-04    15s
  47   4.90847031e+05  4.90463127e+05  7.24e-06 4.24e-04  8.33e-04    15s
  48   4.90820191e+05  4.90472992e+05  6.57e-06 3.74e-04  7.53e-04    15s
  49   4.90787804e+05  4.90486858e+05  5.80e-06 3.22e-04  6.53e-04    16s
  50   4.90741956e+05  4.90499120e+05  4.67e-06 2.58e-04  5.27e-04    16s
  51   4.90703795e+05  4.90505355e+05  3.74e-06 2.27e-04  4.31e-04    16s
  52   4.90696522e+05  4.90511234e+05  3.56e-06 2.00e-04  4.02e-04    16s
  53   4.90681884e+05  4.90513429e+05  3.21e-06 1.88e-04  3.65e-04    16s
  54   4.90668211e+05  4.90516574e+05  2.90e-06 1.74e-04  3.29e-04    17s
  55   4.90645081e+05  4.90520668e+05  2.33e-06 1.54e-04  2.70e-04    17s
  56   4.90634034e+05  4.90526894e+05  2.07e-06 1.24e-04  2.32e-04    17s
  57   4.90621132e+05  4.90534173e+05  1.75e-06 8.91e-05  1.89e-04    17s
  58   4.90613880e+05  4.90535302e+05  1.57e-06 8.51e-05  1.70e-04    17s
  59   4.90607390e+05  4.90536888e+05  1.41e-06 7.55e-05  1.53e-04    18s
  60   4.90600320e+05  4.90539764e+05  1.23e-06 6.23e-05  1.31e-04    18s
  61   4.90591967e+05  4.90541711e+05  1.01e-06 5.27e-05  1.09e-04    18s
  62   4.90588839e+05  4.90543302e+05  9.31e-07 4.50e-05  9.87e-05    18s
  63   4.90579038e+05  4.90544546e+05  6.82e-07 3.91e-05  7.48e-05    18s
  64   4.90574457e+05  4.90545701e+05  5.60e-07 3.36e-05  6.24e-05    19s
  65   4.90573184e+05  4.90546694e+05  5.27e-07 2.91e-05  5.75e-05    19s
  66   4.90570554e+05  4.90547714e+05  4.59e-07 2.45e-05  4.95e-05    19s
  67   4.90568804e+05  4.90548466e+05  4.14e-07 2.11e-05  4.41e-05    19s
  68   4.90568116e+05  4.90548810e+05  3.95e-07 1.92e-05  4.19e-05    19s
  69   4.90566290e+05  4.90549089e+05  3.47e-07 1.79e-05  3.73e-05    20s
  70   4.90565844e+05  4.90549388e+05  3.35e-07 1.66e-05  3.57e-05    20s
  71   4.90562943e+05  4.90549840e+05  2.57e-07 1.47e-05  2.84e-05    20s
  72   4.90561750e+05  4.90550374e+05  2.26e-07 1.24e-05  2.47e-05    20s
  73   4.90559932e+05  4.90550799e+05  1.76e-07 1.06e-05  1.98e-05    20s
  74   4.90558284e+05  4.90551992e+05  1.32e-07 5.52e-06  1.36e-05    21s
  75   4.90556536e+05  4.90552361e+05  8.60e-08 3.90e-06  9.05e-06    21s
  76   4.90555809e+05  4.90552672e+05  6.71e-08 2.33e-06  6.80e-06    21s
  77   4.90554516e+05  4.90553050e+05  3.33e-08 9.44e-07  3.17e-06    21s
  78   4.90554378e+05  4.90553083e+05  2.98e-08 6.71e-07  2.80e-06    21s
  79   4.90553708e+05  4.90553120e+05  1.30e-08 4.31e-07  1.27e-06    21s
  80   4.90553504e+05  4.90553143e+05  7.86e-09 2.87e-07  7.80e-07    22s
  81   4.90553214e+05  4.90553182e+05  6.15e-10 4.46e-08  6.96e-08    22s
  82   4.90553192e+05  4.90553191e+05  1.12e-09 1.80e-07  2.11e-09    22s

Barrier solved model in 82 iterations and 21.82 seconds
Optimal objective 4.90553192e+05


Root crossover log...

   73357 DPushes remaining with DInf 1.7597564e-03                22s
       0 DPushes remaining with DInf 0.0000000e+00                23s

     618 PPushes remaining with PInf 0.0000000e+00                23s
       0 PPushes remaining with PInf 0.0000000e+00                23s

  Push phase complete: Pinf 0.0000000e+00, Dinf 1.5684520e-10     23s


Root simplex log...

Iteration    Objective       Primal Inf.    Dual Inf.      Time
    7907    4.9055319e+05   0.000000e+00   0.000000e+00     23s

Solved with barrier

Root relaxation: objective 4.905532e+05, 7907 iterations, 19.00 seconds

    Nodes    |    Current Node    |     Objective Bounds      |     Work
 Expl Unexpl |  Obj  Depth IntInf | Incumbent    BestBd   Gap | It/Node Time

     0     0 490553.191    0 6124 561193.000 490553.191  12.6%     -   23s
H    0     0                    522168.00000 490553.191  6.05%     -   45s
     0     0 490555.689    0 6151 522168.000 490555.689  6.05%     -   62s
     0     0 490561.608    0 6234 522168.000 490561.608  6.05%     -   81s
     0     0 490561.763    0 6229 522168.000 490561.763  6.05%     -   82s
     0     0 490561.774    0 6225 522168.000 490561.774  6.05%     -   83s
     0     0 490564.651    0 6465 522168.000 490564.651  6.05%     -   88s
     0     0 490565.064    0 6460 522168.000 490565.064  6.05%     -   90s
     0     0 490565.067    0 6463 522168.000 490565.067  6.05%     -   91s
     0     0 490570.296    0 6486 522168.000 490570.296  6.05%     -   97s
     0     0 490570.640    0 6479 522168.000 490570.640  6.05%     -   98s
     0     0 490570.666    0 6489 522168.000 490570.666  6.05%     -   98s
     0     0 490576.817    0 6503 522168.000 490576.817  6.05%     -  103s
     0     0 490577.763    0 6509 522168.000 490577.763  6.05%     -  104s
     0     0 490577.869    0 6512 522168.000 490577.869  6.05%     -  105s
     0     0 490577.870    0 6505 522168.000 490577.870  6.05%     -  105s
     0     0 490579.865    0 6192 522168.000 490579.865  6.05%     -  110s
     0     0 490579.866    0 6191 522168.000 490579.866  6.05%     -  111s
     0     0 490584.771    0 6525 522168.000 490584.771  6.05%     -  115s
     0     0 490584.991    0 6532 522168.000 490584.991  6.05%     -  116s
     0     0 490584.992    0 6529 522168.000 490584.992  6.05%     -  116s
     0     0 490588.557    0 6544 522168.000 490588.557  6.05%     -  121s
     0     0 490588.665    0 6547 522168.000 490588.665  6.05%     -  122s
     0     0 490588.671    0 6801 522168.000 490588.671  6.05%     -  123s
     0     0 490593.172    0 6811 522168.000 490593.172  6.05%     -  128s
     0     0 490593.308    0 6805 522168.000 490593.308  6.05%     -  129s
     0     0 490593.319    0 6803 522168.000 490593.319  6.05%     -  130s
     0     0 490595.151    0 6503 522168.000 490595.151  6.05%     -  134s
     0     0 490595.649    0 6506 522168.000 490595.649  6.05%     -  136s
     0     0 490595.697    0 6531 522168.000 490595.697  6.05%     -  136s
     0     0 490597.864    0 6418 522168.000 490597.864  6.05%     -  140s
     0     0 490598.009    0 6549 522168.000 490598.009  6.05%     -  141s
     0     0 490598.020    0 6525 522168.000 490598.020  6.05%     -  142s
     0     0 490600.027    0 6575 522168.000 490600.027  6.05%     -  147s
     0     0 490600.707    0 6543 522168.000 490600.707  6.05%     -  148s
     0     0 490600.753    0 6519 522168.000 490600.753  6.05%     -  149s
     0     0 490602.040    0 6563 522168.000 490602.040  6.05%     -  154s
     0     0 490602.457    0 6610 522168.000 490602.457  6.05%     -  155s
     0     0 490602.484    0 6563 522168.000 490602.484  6.05%     -  156s
     0     0 490605.964    0 6594 522168.000 490605.964  6.04%     -  161s
     0     0 490606.292    0 6596 522168.000 490606.292  6.04%     -  163s
     0     0 490606.316    0 6861 522168.000 490606.316  6.04%     -  163s
     0     0 490608.387    0 6849 522168.000 490608.387  6.04%     -  168s
H    0     0                    521535.00000 490608.387  5.93%     -  285s
     0     0 490608.502    0 6588 521535.000 490608.502  5.93%     -  285s
     0     0 490608.508    0 6602 521535.000 490608.508  5.93%     -  286s
     0     0 490610.910    0 6358 521535.000 490610.910  5.93%     -  290s
     0     0 490611.017    0 6606 521535.000 490611.017  5.93%     -  292s
     0     0 490611.345    0 6867 521535.000 490611.345  5.93%     -  293s
     0     0 490611.367    0 6874 521535.000 490611.367  5.93%     -  293s
     0     0 490613.075    0 6598 521535.000 490613.075  5.93%     -  297s
     0     0 490613.199    0 6859 521535.000 490613.199  5.93%     -  299s
     0     0          -    0      521535.000 490613.199  5.93%     -  300s

Cutting planes:
  Zero half: 210

Explored 1 nodes (25436 simplex iterations) in 300.03 seconds
Thread count was 8 (of 8 available processors)

Solution count 3: 521535 522168 561193 

Time limit reached
Best objective 5.215350000000e+05, best bound 4.906131986472e+05, gap 5.9290%

User-callback calls 17927, time in user-callback 0.17 sec
Solution written to /Users/mdeboute/Desktop/Etudes/Master/M2/S9/GOPP/Projet/multi-period-flp/solution/instMulti_I50_J250_T12_0_result.txt
